; Copyright (c) 2026 The RIINA Authors. All rights reserved.
; Copyright (c) 2026 The RIINA Authors.
; Auto-generated from 02_FORMAL/coq/domains/security_foundation/BootVerification.v (22 assertions)
; Generated by scripts/generate-full-stack.py
; Module: BootVerification

(set-logic ALL)
(set-option :produce-models true)

; BootStageId (matches Coq: Inductive BootStageId)
(declare-datatypes ((BootStageId 0)) (((HardwareRoot) (Bootloader) (SecondStage) (Kernel) (InitRamFS))))

; VerificationResult (matches Coq: Inductive VerificationResult)
(declare-datatypes ((VerificationResult 0)) (((Verified) (HashMismatch) (SignatureInvalid) (VersionRollback))))

; BootImage (matches Coq: Record BootImage)
(declare-datatypes ((BootImage 0))
  (((mk-boot_image (image_stage BootStageId) (image_hash Int) (image_signature Int) (image_version Int)))))

; ExpectedHash (matches Coq: Record ExpectedHash)
(declare-datatypes ((ExpectedHash 0))
  (((mk-expected_hash (expected_stage BootStageId) (expected_hash_value Int) (expected_public_key Int)))))

; BootChainState (matches Coq: Record BootChainState)
(declare-datatypes ((BootChainState 0))
  (((mk-boot_chain_state (verified_stages list) (current_stage BootStageId) (expected_hashes list) (minimum_versions list) (boot_successful Bool)))))

; initial_boot_state (matches Coq: Definition initial_boot_state)
(define-fun initial_boot_state () BootChainState
  (mk-boot_chain_state [HardwareRoot] HardwareRoot [] [] false))

; previous_stage (matches Coq: Definition previous_stage)
(define-fun previous_stage ((stage BootStageId)) BootStageId
  true)

; stage_verified (matches Coq: Definition stage_verified)
(define-fun stage_verified ((st BootChainState) (stage BootStageId)) Bool
  true)

; verify_image (matches Coq: Definition verify_image)
(define-fun verify_image ((st BootChainState) (img BootImage)) VerificationResult
  true)

; image_tampered (matches Coq: Definition image_tampered)
(define-fun image_tampered ((st BootChainState) (img BootImage)) Bool
  true)

; boot_stage (matches Coq: Definition boot_stage)
(define-fun boot_stage ((st BootChainState) (img BootImage)) BootChainState
  true)

; complete_boot (matches Coq: Definition complete_boot)
(define-fun complete_boot ((st BootChainState)) BootChainState
  true)

; stage_boots (matches Coq: Definition stage_boots)
(define-fun stage_boots ((stage BootStageId)) Prop
  true)

; verified_by_previous (matches Coq: Definition verified_by_previous)
(define-fun verified_by_previous ((st BootChainState) (stage BootStageId)) Prop
  true)

; is_tampered (matches Coq: Definition is_tampered)
(define-fun is_tampered ((st BootChainState) (img BootImage)) Prop
  true)

; can_boot (matches Coq: Definition can_boot)
(define-fun can_boot ((st BootChainState) (img BootImage)) Prop
  true)

; boot_chain_verified (matches Coq: Theorem boot_chain_verified)
(assert (= true true)) ; boot_chain_verified [untranslatable]

; boot_tampering_detected (matches Coq: Theorem boot_tampering_detected)
(assert (= true true)) ; boot_tampering_detected [untranslatable]

; failed_verification_no_boot (matches Coq: Theorem failed_verification_no_boot)
(assert (= true true)) ; failed_verification_no_boot [untranslatable]

; hardware_root_verified (matches Coq: Theorem hardware_root_verified)
(assert (= (stage_verified initial_boot_state HardwareRoot) true)) ; hardware_root_verified

; boot_requires_verification (matches Coq: Theorem boot_requires_verification)
(assert (= true true)) ; boot_requires_verification [untranslatable]

; verification_preserves_previous (matches Coq: Theorem verification_preserves_previous)
(assert (= true true)) ; verification_preserves_previous [untranslatable]

; each_stage_verifies_next (matches Coq: Theorem each_stage_verifies_next)
(assert (= true true)) ; each_stage_verifies_next [untranslatable]

; root_of_trust_immutable (matches Coq: Theorem root_of_trust_immutable)
(assert (= true true)) ; root_of_trust_immutable [untranslatable]

; firmware_rollback_prevented (matches Coq: Theorem firmware_rollback_prevented)
(assert (= true true)) ; firmware_rollback_prevented [untranslatable]

; boot_log_only_grows (matches Coq: Theorem boot_log_only_grows)
(assert (= true true)) ; boot_log_only_grows [untranslatable]

; hash_mismatch_detected (matches Coq: Theorem hash_mismatch_detected)
(assert (= true true)) ; hash_mismatch_detected [untranslatable]

; recovery_mode_requires_hash (matches Coq: Theorem recovery_mode_requires_hash)
(assert (= true true)) ; recovery_mode_requires_hash [untranslatable]

; boot_stage_deterministic (matches Coq: Theorem boot_stage_deterministic)
(assert (= true true)) ; boot_stage_deterministic [untranslatable]

; config_table_validated (matches Coq: Theorem config_table_validated)
(assert (= true true)) ; config_table_validated [untranslatable]

; kernel_signature_checked (matches Coq: Theorem kernel_signature_checked)
(assert (= true true)) ; kernel_signature_checked [untranslatable]

; bootloader_follows_root (matches Coq: Theorem bootloader_follows_root)
(assert (= (previous_stage Bootloader) HardwareRoot)) ; bootloader_follows_root

; second_stage_follows_bootloader (matches Coq: Theorem second_stage_follows_bootloader)
(assert (= (previous_stage SecondStage) Bootloader)) ; second_stage_follows_bootloader

; kernel_follows_second_stage (matches Coq: Theorem kernel_follows_second_stage)
(assert (= (previous_stage Kernel) SecondStage)) ; kernel_follows_second_stage

; initramfs_follows_kernel (matches Coq: Theorem initramfs_follows_kernel)
(assert (= (previous_stage InitRamFS) Kernel)) ; initramfs_follows_kernel

; hardware_root_self_previous (matches Coq: Theorem hardware_root_self_previous)
(assert (= (previous_stage HardwareRoot) HardwareRoot)) ; hardware_root_self_previous

; complete_boot_sets_success (matches Coq: Theorem complete_boot_sets_success)
(assert (= true true)) ; complete_boot_sets_success [untranslatable]

; complete_boot_preserves_verified (matches Coq: Theorem complete_boot_preserves_verified)
(assert (= true true)) ; complete_boot_preserves_verified [untranslatable]

; Verify all assertions are satisfiable
(check-sat)
(exit)
